#zhushi
lattice_vector      8.35637093      0.00000000      0.00000000
lattice_vector      0.00000000      8.35637093      0.00000000
lattice_vector      0.00000000      0.00000000     80.00000000
atom       0.00000000      0.00000000     40.00000000 Pb
atom       4.17818546      4.17818546     40.00000000 Pb
atom       2.08909273      2.08909273     39.47776549 Br
atom       2.08909273      6.26727819     40.45844494 Br
atom       6.26727819      2.08909273     39.47776549 Br
atom       6.26727819      6.26727819     40.45844494 Br
atom       0.00000000      0.68418599     42.91561885 Br
atom       4.17818546      3.49399948     42.91561885 Br
atom       0.00000000     -0.68418599     37.08438115 Br
atom       4.17818546      4.86237145     37.08438115 Br
atom       4.17818546      0.00000000     37.00518052 Cs
atom       0.00000000      4.17818546     37.00518052 Cs
atom       4.17818546      0.00000000     42.99481948 Cs
atom       0.00000000      4.17818546     42.99481948 Cs
